17	4
17	22	12	10	
0	0	0	0	0	3	2	3	4	
8	6	0	0	0	3	5	11	12	
6	0	8	0	0	3	5	7	17	
2	0	0	7	0	3	8	10	16	
6	0	0	1	0	3	6	9	17	
100	0	8	0	0	2	14	17	
100	0	2	0	0	3	15	17	17	
175	0	5	0	0	3	13	14	15	
75	9	0	0	0	3	17	17	17	
200	0	1	0	0	3	15	17	17	
125	0	0	0	7	3	16	17	17	
250	0	0	3	0	3	13	17	17	
6	10	0	0	0	3	17	17	17	
10	1	0	0	0	2	17	17	
7	5	0	0	0	2	17	17	
4	6	0	0	0	3	17	17	17	
0	0	0	0	0	0	
